========================================================== 
File name: C:\DEGR\assets\definitions\MSRCPSP_Gen\1000_40_1024_10_D.def
Creation date: Sat May 06 09:23:29 CEST 2023
Website: http://imopse.ii.pwr.edu.pl/ 
Reference: 
Myszkowski P. B., Skowronski M. E., Olech L., Oslizlo K., 
Hybrid Ant Colony Optimization in solving Multi-Skill Resource-Constrained Project Scheduling Problem, 
Soft Computing, DOI: DOI 10.1007/s00500-014-1455-x 
========================================================== 
General characteristics: 
Tasks: 1000
Resources: 40
Precedence relations: 1023
Number of skill types: 10
========================================================== 
ResourceID 	 Salary 	 Skills 
1	 	 	97.2	 	 Q7: 3 	  Q3: 0 	  Q6: 1 	 
2	 	 	85.7	 	 Q1: 2 	  Q2: 1 	  Q9: 1 	 
3	 	 	84.0	 	 Q4: 2 	  Q8: 3 	 
4	 	 	33.9	 	 Q4: 2 	  Q9: 2 	  Q7: 3 	  Q2: 1 	  Q1: 2 	  Q0: 1 	  Q3: 2 	  Q6: 0 	  Q8: 3 	 
5	 	 	24.8	 	 Q0: 2 	  Q1: 3 	  Q5: 2 	  Q9: 0 	  Q3: 1 	 
6	 	 	56.2	 	 Q7: 2 	  Q1: 0 	 
7	 	 	48.7	 	 Q7: 0 	  Q5: 0 	 
8	 	 	24.0	 	 Q0: 0 	  Q6: 1 	  Q1: 0 	  Q2: 0 	  Q5: 2 	  Q9: 2 	  Q8: 2 	  Q3: 0 	  Q4: 2 	 
9	 	 	61.6	 	 Q8: 2 	  Q9: 2 	  Q0: 0 	 
10	 	 	26.6	 	 Q6: 2 	  Q4: 0 	  Q5: 2 	  Q1: 2 	  Q8: 1 	  Q7: 2 	  Q2: 3 	 
11	 	 	22.3	 	 Q8: 2 	  Q5: 2 	 
12	 	 	85.0	 	 Q4: 2 	  Q5: 1 	  Q0: 3 	 
13	 	 	69.2	 	 Q1: 0 	  Q8: 0 	  Q7: 1 	  Q0: 1 	  Q4: 0 	  Q6: 3 	  Q3: 3 	 
14	 	 	48.6	 	 Q1: 0 	  Q7: 2 	  Q5: 0 	  Q2: 0 	  Q6: 2 	  Q8: 0 	  Q0: 3 	  Q3: 1 	  Q4: 2 	 
15	 	 	92.9	 	 Q3: 2 	  Q4: 3 	  Q9: 3 	  Q7: 3 	  Q1: 1 	  Q2: 0 	 
16	 	 	46.9	 	 Q6: 2 	  Q3: 2 	 
17	 	 	31.9	 	 Q3: 0 	 
18	 	 	80.3	 	 Q5: 1 	  Q1: 0 	  Q4: 0 	  Q8: 1 	 
19	 	 	34.2	 	 Q4: 0 	  Q2: 1 	  Q6: 0 	 
20	 	 	64.6	 	 Q9: 2 	  Q6: 3 	  Q3: 0 	  Q8: 0 	  Q0: 1 	  Q5: 1 	  Q7: 1 	  Q2: 3 	 
21	 	 	39.6	 	 Q8: 1 	  Q1: 2 	  Q2: 2 	  Q0: 0 	  Q3: 3 	 
22	 	 	19.5	 	 Q5: 2 	  Q2: 0 	  Q9: 0 	  Q0: 3 	 
23	 	 	23.0	 	 Q7: 0 	  Q2: 1 	 
24	 	 	88.0	 	 Q3: 0 	  Q0: 2 	  Q2: 0 	  Q4: 0 	  Q5: 3 	  Q8: 0 	 
25	 	 	88.4	 	 Q9: 1 	  Q0: 1 	  Q6: 2 	  Q3: 0 	 
26	 	 	81.2	 	 Q1: 2 	  Q7: 0 	  Q0: 1 	  Q3: 2 	  Q5: 0 	  Q8: 1 	  Q9: 0 	  Q4: 1 	 
27	 	 	34.6	 	 Q7: 2 	  Q1: 1 	  Q8: 3 	  Q4: 1 	  Q2: 0 	  Q9: 2 	 
28	 	 	21.3	 	 Q0: 3 	 
29	 	 	44.6	 	 Q7: 2 	  Q8: 2 	  Q6: 3 	  Q2: 3 	  Q1: 2 	  Q0: 2 	  Q5: 1 	  Q3: 2 	  Q9: 2 	 
30	 	 	65.3	 	 Q3: 2 	 
31	 	 	18.3	 	 Q4: 2 	  Q1: 0 	 
32	 	 	35.2	 	 Q8: 0 	 
33	 	 	45.0	 	 Q2: 0 	  Q4: 2 	 
34	 	 	26.8	 	 Q5: 0 	  Q3: 1 	  Q6: 2 	  Q8: 1 	  Q1: 2 	 
35	 	 	37.6	 	 Q8: 2 	 
36	 	 	75.2	 	 Q2: 0 	  Q7: 2 	  Q9: 1 	  Q1: 2 	  Q4: 1 	  Q0: 3 	  Q6: 3 	  Q3: 2 	 
37	 	 	21.9	 	 Q1: 2 	  Q2: 3 	  Q4: 2 	 
38	 	 	67.8	 	 Q0: 1 	  Q1: 1 	  Q9: 1 	  Q8: 2 	  Q5: 1 	  Q4: 1 	  Q7: 2 	 
39	 	 	28.6	 	 Q2: 3 	  Q9: 3 	  Q8: 2 	  Q5: 1 	  Q0: 0 	  Q3: 1 	 
40	 	 	42.7	 	 Q3: 3 	  Q5: 3 	  Q7: 0 	  Q0: 3 	  Q4: 3 	  Q8: 0 	 
========================================================== 
TaskID 	 Duration 	 Skill 	 Predecessor IDs 
1	13	Q4:	2
2	19	Q7:	0
3	35	Q0:	3
4	22	Q7:	1
5	17	Q3:	2
6	35	Q4:	2
7	18	Q4:	2
8	23	Q4:	3
9	11	Q6:	1
10	30	Q9:	3
11	25	Q2:	0
12	19	Q4:	1
13	12	Q1:	2
14	39	Q0:	1
15	20	Q6:	0
16	20	Q7:	2
17	32	Q2:	3
18	39	Q0:	0
19	18	Q0:	0
20	25	Q8:	2
21	22	Q0:	0
22	32	Q9:	0
23	19	Q7:	1
24	16	Q1:	0
25	30	Q3:	0
26	22	Q2:	3
27	40	Q7:	1
28	21	Q6:	1	20
29	33	Q4:	1
30	10	Q8:	2
31	12	Q1:	0
32	17	Q8:	3
33	22	Q8:	1
34	14	Q9:	3
35	28	Q1:	1
36	19	Q9:	2
37	22	Q0:	2
38	27	Q5:	1
39	17	Q5:	3
40	20	Q2:	2
41	21	Q6:	3
42	40	Q9:	1
43	13	Q4:	3
44	16	Q3:	1
45	14	Q3:	3
46	38	Q2:	3
47	39	Q5:	0
48	26	Q4:	1
49	33	Q2:	3
50	14	Q2:	1
51	22	Q8:	0
52	36	Q9:	0
53	18	Q7:	3
54	20	Q1:	0
55	21	Q0:	2
56	33	Q8:	0	47
57	34	Q0:	1	29	2
58	12	Q9:	1
59	40	Q1:	2
60	28	Q8:	2	8	3
61	30	Q7:	1
62	34	Q0:	1
63	40	Q6:	0
64	19	Q8:	1
65	21	Q3:	1
66	36	Q4:	2
67	31	Q5:	2
68	21	Q4:	0
69	10	Q9:	1
70	28	Q8:	2
71	16	Q3:	2
72	32	Q8:	3
73	10	Q9:	1
74	26	Q6:	2
75	21	Q1:	0
76	25	Q6:	1
77	23	Q5:	1
78	35	Q3:	1
79	30	Q3:	0
80	9	Q7:	2	62
81	29	Q1:	1
82	34	Q9:	3	73
83	31	Q8:	0
84	15	Q6:	1
85	17	Q5:	2
86	30	Q4:	3
87	32	Q4:	0
88	33	Q1:	2
89	14	Q5:	2
90	28	Q0:	1	56
91	33	Q9:	1
92	12	Q4:	0
93	39	Q9:	3
94	21	Q2:	0	55
95	22	Q5:	1	54
96	17	Q1:	0	91
97	37	Q7:	1
98	28	Q6:	1
99	10	Q3:	1
100	22	Q4:	1
101	30	Q0:	2
102	33	Q8:	0
103	37	Q3:	0
104	31	Q5:	3
105	24	Q0:	0
106	24	Q8:	1
107	37	Q4:	0	97
108	11	Q7:	2
109	38	Q4:	3
110	39	Q9:	0
111	20	Q0:	0
112	17	Q5:	0
113	28	Q4:	1	8
114	35	Q0:	2
115	23	Q7:	0
116	34	Q4:	0
117	36	Q2:	2
118	31	Q7:	3
119	16	Q4:	2
120	22	Q9:	0	16
121	31	Q8:	3
122	11	Q1:	2
123	31	Q8:	2
124	13	Q0:	3
125	22	Q5:	3
126	23	Q1:	3
127	13	Q8:	2
128	35	Q0:	3
129	29	Q2:	0
130	40	Q5:	1
131	18	Q1:	0
132	31	Q0:	0
133	40	Q6:	0
134	24	Q1:	0
135	38	Q0:	3
136	10	Q8:	2	120
137	14	Q1:	0
138	31	Q7:	0
139	24	Q7:	0	95
140	40	Q9:	2
141	14	Q3:	3
142	9	Q0:	2
143	29	Q3:	1
144	12	Q0:	1
145	38	Q1:	1
146	11	Q4:	1
147	17	Q9:	2
148	9	Q1:	1	64
149	24	Q7:	0
150	28	Q1:	1	65
151	29	Q7:	0
152	20	Q5:	2
153	36	Q0:	2
154	38	Q2:	1
155	35	Q8:	1
156	23	Q4:	2
157	20	Q0:	3
158	25	Q6:	1
159	26	Q2:	3
160	15	Q5:	3
161	9	Q4:	1	157
162	28	Q8:	1
163	29	Q7:	0	29
164	22	Q1:	2
165	34	Q6:	2
166	9	Q3:	2
167	16	Q2:	3
168	37	Q1:	3
169	18	Q0:	1	59
170	31	Q4:	0	38
171	38	Q3:	1	106	113
172	10	Q7:	3	130
173	26	Q2:	2
174	18	Q5:	2	124
175	11	Q2:	1	115
176	14	Q7:	2
177	40	Q1:	2	87
178	34	Q5:	1
179	19	Q2:	2
180	14	Q4:	0
181	19	Q6:	3
182	11	Q7:	2	48
183	39	Q0:	3
184	21	Q1:	0
185	22	Q1:	3	146
186	23	Q2:	3
187	33	Q7:	0
188	40	Q9:	3	48
189	39	Q6:	2	25
190	28	Q1:	2	164
191	27	Q3:	0	106
192	39	Q8:	2
193	25	Q2:	3
194	16	Q1:	2	121
195	15	Q3:	1	127	121
196	30	Q5:	0	118
197	11	Q2:	3	131	167	78
198	38	Q0:	3
199	27	Q1:	0
200	27	Q8:	0
201	23	Q0:	1	42
202	24	Q6:	3
203	31	Q5:	0
204	38	Q1:	0
205	40	Q3:	0
206	21	Q9:	2
207	14	Q4:	0
208	37	Q6:	2
209	34	Q2:	0	150
210	38	Q3:	3	43
211	31	Q5:	3
212	22	Q4:	2
213	30	Q7:	2
214	39	Q7:	3
215	14	Q9:	2
216	27	Q1:	0
217	21	Q6:	1
218	16	Q6:	1	209
219	30	Q4:	3
220	40	Q7:	1
221	10	Q9:	0
222	33	Q0:	0
223	13	Q8:	1	21	82
224	40	Q2:	2
225	15	Q9:	2
226	32	Q4:	2
227	30	Q9:	3	120
228	25	Q9:	0
229	15	Q6:	2
230	33	Q4:	2
231	23	Q6:	3	170
232	31	Q8:	3	128
233	36	Q0:	2
234	39	Q4:	3
235	13	Q1:	0	66
236	11	Q5:	0
237	33	Q5:	0
238	35	Q3:	1	21
239	32	Q8:	2
240	33	Q7:	3
241	24	Q7:	0
242	17	Q4:	3	20
243	9	Q0:	3
244	40	Q1:	3
245	16	Q6:	2
246	11	Q1:	0
247	15	Q1:	3
248	25	Q9:	3	123
249	18	Q7:	3	114
250	20	Q7:	0
251	22	Q9:	1
252	18	Q4:	1	130
253	16	Q7:	0
254	10	Q7:	3
255	24	Q4:	0
256	39	Q7:	0
257	28	Q0:	0	164	54
258	35	Q4:	3
259	40	Q3:	2	41
260	17	Q1:	2	234
261	29	Q7:	2	239
262	15	Q3:	1
263	10	Q6:	2
264	29	Q3:	1
265	31	Q7:	0	159
266	19	Q3:	0	39
267	34	Q4:	0	254
268	16	Q9:	3	262
269	33	Q5:	2
270	15	Q1:	1	26
271	32	Q6:	1
272	33	Q5:	3	242
273	22	Q9:	3
274	15	Q0:	1	236
275	26	Q2:	1
276	31	Q2:	0
277	36	Q6:	2	28
278	22	Q9:	1
279	15	Q7:	1	110	14
280	31	Q6:	1
281	29	Q3:	1	217
282	11	Q4:	0
283	13	Q7:	2	171
284	34	Q2:	0
285	38	Q9:	2
286	32	Q6:	1
287	12	Q0:	1	83	61
288	34	Q6:	0
289	31	Q5:	3	167
290	24	Q5:	3
291	23	Q9:	3
292	14	Q1:	1	49	274
293	30	Q1:	3	41	106
294	12	Q9:	0
295	33	Q0:	1
296	9	Q6:	3
297	32	Q7:	1
298	40	Q2:	0
299	13	Q6:	0	64	51
300	13	Q4:	1	84
301	31	Q8:	0	196
302	27	Q1:	1	90	76	121
303	39	Q2:	1
304	38	Q9:	0	225
305	16	Q4:	0
306	23	Q7:	0	266	305
307	16	Q6:	2	214
308	30	Q8:	3	76	207
309	26	Q1:	3
310	23	Q0:	1
311	39	Q1:	1	160
312	21	Q0:	1	237
313	28	Q7:	3	26	32
314	37	Q0:	1
315	10	Q9:	1
316	17	Q7:	0	74
317	12	Q6:	0
318	31	Q8:	3
319	31	Q7:	2	142
320	25	Q6:	2	24
321	14	Q9:	2	262
322	15	Q6:	1
323	10	Q4:	0
324	14	Q4:	0
325	26	Q7:	0
326	12	Q0:	2
327	30	Q2:	2	10
328	31	Q5:	0	103
329	11	Q6:	2
330	22	Q9:	0	329	315	166	188
331	18	Q0:	1	130
332	22	Q9:	3	324
333	38	Q7:	1
334	35	Q7:	1
335	19	Q6:	0	79
336	24	Q8:	1
337	19	Q8:	1	286	41
338	16	Q2:	0	102
339	16	Q1:	2
340	17	Q1:	2
341	29	Q1:	1	202
342	29	Q2:	0	232
343	23	Q7:	2	273	241	77
344	28	Q3:	3	145	205
345	11	Q5:	0
346	21	Q4:	1	133
347	17	Q7:	0	119
348	21	Q5:	1	2	202
349	37	Q7:	1	249
350	10	Q1:	2	16	4
351	26	Q8:	2
352	15	Q4:	1
353	39	Q4:	3	320
354	38	Q0:	2
355	40	Q8:	2
356	12	Q8:	3	189	6
357	32	Q6:	3
358	20	Q8:	1
359	21	Q6:	3
360	38	Q4:	1
361	23	Q9:	3
362	25	Q3:	2	249
363	15	Q5:	1
364	29	Q8:	2	233
365	13	Q0:	1
366	25	Q6:	2
367	17	Q0:	0	321
368	36	Q8:	0
369	22	Q1:	0
370	21	Q9:	0
371	25	Q6:	2
372	17	Q5:	0
373	14	Q4:	3
374	24	Q8:	3	364
375	15	Q3:	2	120
376	19	Q3:	2	30
377	35	Q4:	2
378	38	Q5:	1	113
379	15	Q2:	0
380	11	Q2:	3	303
381	31	Q2:	1
382	12	Q7:	3	117	44
383	35	Q7:	2
384	27	Q1:	3	382
385	12	Q8:	0	255
386	29	Q1:	1	65	1	163
387	24	Q6:	1	335
388	37	Q8:	1
389	28	Q9:	2
390	23	Q7:	3	285
391	12	Q2:	3
392	27	Q5:	1
393	20	Q4:	1	82	161	392
394	13	Q2:	2
395	13	Q9:	2	385
396	37	Q6:	2	327	235
397	30	Q4:	1	26
398	12	Q7:	0	116
399	18	Q3:	2	98
400	16	Q7:	2
401	28	Q9:	3	295	92	342
402	17	Q0:	3
403	36	Q2:	0
404	25	Q9:	2
405	31	Q6:	0
406	26	Q8:	0
407	12	Q0:	3
408	10	Q4:	0
409	12	Q9:	0
410	10	Q0:	3
411	9	Q5:	0
412	39	Q4:	1	329
413	20	Q3:	1	147
414	31	Q1:	0	205
415	28	Q3:	1	108	367
416	15	Q1:	0
417	35	Q8:	3	243
418	14	Q9:	2	68	91
419	37	Q4:	3
420	19	Q2:	0
421	13	Q9:	3
422	31	Q9:	0
423	13	Q7:	0	281	382
424	38	Q0:	2	258	169
425	35	Q2:	0
426	36	Q0:	3	378
427	11	Q1:	2
428	18	Q8:	0	347
429	36	Q0:	2
430	39	Q2:	0	104
431	39	Q4:	0
432	16	Q1:	1
433	24	Q3:	0	397	348
434	18	Q6:	0	19	129	244	306
435	38	Q6:	1	414	292	424	81
436	21	Q7:	1
437	14	Q9:	0	241	319
438	33	Q7:	1	136	282
439	11	Q7:	3	327	5
440	25	Q1:	2	80
441	15	Q3:	0
442	25	Q0:	0	343	234
443	19	Q1:	1
444	12	Q8:	3	349
445	33	Q2:	1	234
446	18	Q2:	1	56
447	33	Q9:	3
448	29	Q5:	1	99	45
449	29	Q2:	3
450	38	Q7:	1	247
451	38	Q3:	3	154
452	34	Q9:	2	218
453	40	Q3:	0	370	352	27
454	30	Q8:	1	379
455	15	Q8:	0	380
456	22	Q2:	3
457	16	Q4:	0	418
458	37	Q0:	2
459	34	Q4:	3	134	315	294	130
460	39	Q0:	1
461	25	Q8:	0
462	15	Q4:	3
463	10	Q0:	2	362
464	33	Q8:	1	254
465	23	Q2:	0
466	15	Q5:	3	297
467	38	Q2:	0	154
468	10	Q0:	1	167
469	12	Q0:	2	347
470	14	Q3:	2
471	32	Q5:	1	271
472	32	Q2:	2	387	209
473	25	Q0:	0
474	22	Q0:	3
475	17	Q2:	0
476	17	Q1:	2	44	20
477	25	Q8:	0	462	454
478	38	Q6:	1
479	18	Q4:	2	131
480	19	Q1:	1	139	355
481	11	Q8:	2
482	17	Q1:	2	433
483	18	Q0:	0
484	21	Q8:	2	262
485	39	Q8:	1	270	474	389
486	33	Q3:	1
487	26	Q7:	2
488	38	Q8:	2	461
489	20	Q4:	2	160
490	25	Q2:	3
491	34	Q6:	0
492	16	Q6:	3	277	411	150
493	10	Q2:	2	73	81	33
494	16	Q4:	3	176
495	37	Q9:	1
496	19	Q7:	2
497	27	Q2:	1	379	208	4
498	19	Q8:	2	265
499	39	Q8:	0	212	165	102	492
500	21	Q5:	3
501	14	Q6:	1
502	30	Q0:	0	477
503	20	Q3:	3	128
504	13	Q2:	0	106
505	34	Q1:	0	308
506	26	Q1:	2
507	29	Q0:	2
508	39	Q1:	2	421
509	9	Q2:	1
510	9	Q8:	3
511	35	Q0:	1
512	36	Q4:	0	121	428
513	21	Q8:	2	462
514	35	Q7:	3
515	21	Q3:	2
516	18	Q9:	2	265
517	20	Q9:	3
518	22	Q6:	3	356	188
519	36	Q4:	3
520	37	Q3:	1	175
521	33	Q8:	1
522	23	Q0:	0	502	457
523	36	Q4:	2	69
524	38	Q3:	1	222
525	22	Q7:	1	408	55	85
526	10	Q7:	1
527	11	Q0:	2	143
528	20	Q0:	3
529	20	Q1:	2
530	12	Q6:	2	295	375
531	18	Q2:	3	289	13	118
532	32	Q2:	3	245	269
533	29	Q3:	3	473
534	16	Q7:	2	264
535	13	Q1:	1
536	16	Q2:	1	1	79
537	29	Q1:	0	459	536	302	507
538	10	Q3:	0	340	43
539	26	Q0:	2	521	494
540	40	Q1:	1	103	162
541	30	Q1:	0	383
542	27	Q6:	3	256	511	334
543	20	Q1:	2
544	31	Q8:	2
545	28	Q2:	0
546	21	Q4:	3	21
547	25	Q9:	0	121	168
548	20	Q5:	2	365
549	12	Q9:	1	520	433
550	13	Q2:	2	463
551	28	Q2:	1	205	105	546
552	18	Q9:	1
553	22	Q3:	0	35	281
554	33	Q2:	3	468
555	26	Q3:	3
556	15	Q4:	1	273
557	28	Q2:	1	430	263
558	18	Q8:	2
559	19	Q8:	0	227	310
560	9	Q4:	2
561	39	Q2:	3	248
562	12	Q0:	2
563	20	Q1:	2	70
564	23	Q2:	2	142
565	29	Q2:	0	508	16
566	11	Q8:	1	536	289
567	27	Q3:	1
568	18	Q0:	3
569	13	Q9:	1
570	19	Q6:	0	112	249
571	39	Q7:	0
572	24	Q1:	0	248	304
573	23	Q9:	2
574	29	Q8:	0	147
575	20	Q0:	1	20	60
576	39	Q1:	3	445	329
577	36	Q0:	3	253	459	200
578	31	Q8:	1	545	176
579	11	Q0:	3	169
580	37	Q5:	1	481	438	474	116
581	25	Q5:	3	175	459
582	15	Q3:	2	42
583	32	Q7:	0
584	14	Q6:	2
585	27	Q5:	3	304
586	33	Q2:	2	391
587	11	Q5:	1	374
588	16	Q1:	0	58	466
589	17	Q2:	1	585
590	39	Q2:	2	187	503	278	4
591	29	Q0:	3	373	66
592	9	Q7:	2
593	25	Q7:	3	280
594	36	Q3:	0	207	532
595	12	Q6:	1	254	159	527
596	37	Q6:	2	424	472
597	12	Q8:	2
598	26	Q5:	2	570
599	16	Q1:	0	345
600	19	Q9:	3	137
601	36	Q3:	1	421	528
602	15	Q5:	1	595	333
603	38	Q4:	2	490
604	28	Q4:	1	229	353	76
605	28	Q5:	1
606	37	Q7:	2	235
607	9	Q6:	0
608	18	Q9:	2
609	37	Q1:	2
610	33	Q0:	0	434
611	13	Q9:	0	235
612	37	Q4:	3	312	187	30	148
613	32	Q6:	3	324	587
614	12	Q5:	2
615	24	Q9:	0	170	550
616	11	Q2:	1
617	35	Q6:	1	112	597	7	21
618	18	Q3:	0	55
619	24	Q6:	1
620	28	Q3:	0	303
621	26	Q0:	0	438
622	15	Q0:	0	69	523	29
623	34	Q5:	0	572
624	39	Q9:	0	229	291
625	11	Q5:	1	236	415
626	20	Q1:	1	41
627	38	Q4:	1	47	560
628	29	Q6:	3	237
629	20	Q0:	3	566
630	33	Q6:	1	77
631	32	Q8:	1	37	275	386	561
632	20	Q7:	3
633	17	Q4:	2	596	531	80
634	16	Q7:	0
635	27	Q3:	0	333	62
636	11	Q2:	0
637	32	Q1:	3	453	605	461
638	27	Q9:	2
639	32	Q2:	1
640	24	Q6:	2	2	560
641	35	Q8:	0
642	16	Q7:	0	288	252
643	17	Q0:	3	211	7	342	125
644	17	Q7:	2	31
645	22	Q9:	2	141
646	37	Q1:	1	474	621	32
647	20	Q4:	2	192
648	13	Q3:	0	589
649	21	Q7:	1	147	108
650	20	Q7:	3	69	163
651	10	Q7:	3	249	87
652	25	Q6:	3	304	146	74
653	15	Q8:	0	214	355
654	18	Q0:	3	610	423
655	35	Q0:	3	220	473	283
656	27	Q0:	1
657	14	Q2:	0	157
658	28	Q7:	0	445
659	22	Q0:	0	438	21
660	13	Q5:	3	252
661	32	Q4:	0	163	634
662	36	Q0:	3	34	111	343
663	36	Q3:	2	544	122
664	38	Q5:	0	3
665	37	Q9:	3	329	618	444
666	23	Q8:	2	221	550
667	36	Q1:	3	35
668	27	Q5:	1	512	522
669	39	Q7:	1	143
670	36	Q6:	0	220
671	40	Q3:	3	119
672	33	Q0:	2	243	290
673	17	Q0:	1	66	295	101
674	13	Q6:	0	392
675	29	Q8:	1	323
676	23	Q0:	1
677	20	Q0:	1
678	12	Q3:	0	149
679	27	Q8:	2	387
680	8	Q2:	2
681	39	Q3:	2	231	560	116	330
682	32	Q8:	2	173
683	31	Q7:	3	312
684	27	Q7:	0	195
685	14	Q0:	1
686	39	Q0:	1	278	32
687	9	Q2:	0	630	59
688	29	Q0:	2	248	150	670	53
689	17	Q8:	2	201	120
690	23	Q1:	2	313
691	25	Q9:	1
692	12	Q8:	3	337	82
693	27	Q4:	2
694	16	Q9:	1	118	631	474	381
695	13	Q8:	1	599
696	36	Q2:	3	107	618
697	19	Q7:	1	585
698	16	Q6:	0	404
699	11	Q0:	2	153
700	27	Q0:	2	428	113
701	25	Q7:	1	685	305
702	39	Q3:	1
703	14	Q8:	2	9
704	36	Q6:	0
705	26	Q2:	1	60
706	35	Q0:	3	288
707	15	Q6:	1	251
708	19	Q4:	3	29
709	33	Q3:	0	207	289
710	23	Q6:	2	558
711	29	Q0:	2	223
712	22	Q6:	3	379	606	501	33
713	15	Q9:	0	538	602
714	12	Q2:	1	378
715	13	Q0:	2	554
716	29	Q9:	0	553	173
717	38	Q0:	2	694	637
718	38	Q8:	3	561	568	24
719	11	Q1:	3	384	49
720	32	Q2:	3	300	148
721	39	Q9:	2	623
722	27	Q9:	3	352	92
723	14	Q8:	1	362
724	34	Q9:	3
725	23	Q9:	2	128	234
726	17	Q2:	0	426	152
727	26	Q4:	1	107
728	17	Q0:	2
729	10	Q4:	2
730	19	Q8:	3	423	453
731	9	Q1:	1	214
732	22	Q7:	1
733	23	Q8:	0	36	732
734	11	Q3:	2	506	461
735	13	Q1:	1	80
736	34	Q0:	0
737	17	Q0:	3	583	132
738	18	Q9:	1	397
739	20	Q6:	2	191	542
740	17	Q3:	2	109	657	684	441
741	21	Q0:	3
742	22	Q0:	1
743	15	Q8:	1	392
744	28	Q0:	0	439
745	16	Q3:	1	728	599
746	17	Q5:	0	283
747	35	Q7:	1
748	10	Q9:	3	365	654
749	28	Q1:	2
750	34	Q2:	0	284
751	25	Q3:	1	324	351	750
752	26	Q9:	0	415
753	33	Q6:	3	383
754	9	Q2:	3	372	50
755	31	Q1:	2	95	499	562
756	9	Q8:	2
757	26	Q8:	0	65
758	12	Q2:	0	607	627
759	20	Q5:	3	78	586
760	31	Q2:	1	529	251	467
761	32	Q3:	3	642	567
762	24	Q1:	3	230
763	14	Q5:	1	183
764	24	Q0:	0	240
765	33	Q4:	1
766	14	Q0:	3
767	25	Q7:	3	646
768	23	Q7:	2	546	103
769	13	Q2:	3
770	21	Q5:	3	383	268	325	216
771	33	Q6:	3	702	604
772	23	Q6:	3	117
773	17	Q5:	1	124
774	20	Q4:	1	721	417
775	10	Q4:	0	141	347
776	24	Q8:	0	377	623
777	31	Q5:	0	344
778	30	Q5:	0	101	770	85
779	21	Q5:	3	245
780	39	Q6:	3	747	768
781	10	Q8:	2	272	558	426	181
782	39	Q4:	0
783	19	Q1:	3
784	15	Q8:	1	582
785	13	Q1:	3	107
786	25	Q2:	3
787	9	Q1:	1	55
788	32	Q2:	1	237	579	273
789	21	Q1:	2	386
790	36	Q4:	2	384	266	165
791	24	Q8:	3	444
792	36	Q3:	3	607	514
793	32	Q3:	0	775	465
794	35	Q6:	2	524	599
795	14	Q3:	0	791	119	187
796	36	Q0:	0
797	22	Q2:	2	552
798	14	Q4:	0
799	26	Q6:	3	750
800	40	Q7:	3	150	699
801	40	Q8:	1	466
802	33	Q9:	3	591	138
803	18	Q1:	2	440
804	26	Q2:	0	301	552	148
805	21	Q6:	3	670
806	31	Q1:	1	235	546	241
807	26	Q9:	2
808	20	Q8:	0	334	636
809	24	Q2:	3	763	683
810	16	Q0:	1	613	474	622
811	14	Q3:	1	92
812	39	Q0:	2	27	625
813	12	Q3:	1	625
814	40	Q7:	1	16	608	265	599	477
815	34	Q1:	2	635	445
816	12	Q8:	2	520
817	20	Q7:	0	218
818	26	Q5:	0	663	468	730	228	486	776
819	30	Q3:	2	729
820	33	Q3:	3	530
821	33	Q1:	3	54	163	352	479
822	36	Q9:	2	276
823	38	Q7:	0	565	496
824	13	Q8:	3
825	31	Q3:	1	21	103	820
826	40	Q0:	2
827	29	Q8:	2	749	560
828	40	Q1:	3	85	88
829	13	Q9:	3	714	644
830	22	Q0:	3	297	624
831	13	Q1:	0
832	31	Q6:	3	233	357
833	9	Q5:	0	685
834	32	Q9:	3	154	617	147
835	25	Q7:	0	75	124
836	23	Q8:	1
837	39	Q9:	1	98
838	21	Q0:	2	682	203
839	14	Q2:	2	528	102	784
840	32	Q3:	3	619	190	671
841	27	Q3:	0	657	522
842	17	Q7:	3	307
843	15	Q6:	0	141	199	482
844	15	Q4:	3	466	274
845	23	Q4:	2	140
846	15	Q8:	1	251
847	32	Q4:	0	26	683
848	33	Q3:	3	264	23
849	14	Q0:	3
850	17	Q2:	3	713
851	16	Q2:	3	320
852	29	Q1:	3	576	549
853	39	Q3:	2	422
854	19	Q2:	2	459	66
855	20	Q7:	0	803	338	41
856	34	Q1:	3	193
857	31	Q1:	3
858	11	Q9:	2
859	40	Q2:	2	472	826
860	34	Q9:	2	126
861	40	Q8:	1
862	22	Q3:	3	315
863	12	Q2:	1	586	430	649
864	12	Q0:	3	105	783	531	633
865	22	Q6:	3	156	368	423
866	22	Q9:	3	246	527
867	9	Q1:	3
868	23	Q6:	1	116
869	24	Q9:	3	619
870	29	Q6:	2	71	272	798	358	697
871	21	Q6:	2	850	45	805
872	28	Q5:	1
873	14	Q2:	1	227	173	706
874	33	Q0:	2	127	262	724
875	18	Q2:	1	229
876	16	Q8:	2	726	347
877	18	Q4:	0	97
878	22	Q0:	2	281
879	36	Q7:	3	778
880	39	Q6:	3
881	22	Q3:	0	828	676
882	40	Q9:	1	524	725
883	12	Q3:	0
884	9	Q3:	2
885	17	Q9:	2	574
886	19	Q2:	2	609	683
887	17	Q5:	1	109	685
888	9	Q2:	0	2	742	397
889	20	Q7:	2	685
890	13	Q8:	2	418	113
891	39	Q0:	0	208	182
892	9	Q7:	0
893	20	Q0:	3	868
894	25	Q8:	3	420	827	740
895	33	Q6:	3	837
896	15	Q9:	2	580	133
897	12	Q0:	1
898	19	Q3:	2	586	639	216	203
899	22	Q0:	1
900	29	Q4:	0	420	666	257	614
901	26	Q3:	1
902	9	Q0:	2	396	604	500	296	176	714
903	32	Q9:	0	692
904	29	Q5:	2
905	38	Q8:	2	107
906	10	Q6:	1	730	839	873	581	316	304
907	20	Q4:	3	132
908	32	Q8:	0	860	814	617	56
909	29	Q1:	1	19	306
910	39	Q2:	2	803	474
911	23	Q4:	2	150
912	19	Q5:	3	603
913	36	Q1:	3	362
914	25	Q7:	3	849	809	317	118
915	22	Q7:	0	352
916	40	Q7:	2	699	821	834
917	24	Q0:	0	465	576	656
918	29	Q9:	2	846
919	10	Q0:	0	303	101
920	29	Q6:	1	408	738	797
921	21	Q7:	2	348
922	35	Q8:	1	396
923	36	Q4:	1	731	689	693
924	27	Q9:	0	422	103	77	612
925	22	Q2:	3
926	21	Q0:	2	732	841
927	26	Q0:	3	672	434	279	693	574
928	12	Q8:	0
929	35	Q8:	2
930	40	Q5:	3	755	152
931	20	Q6:	0	650	384	671	283	107
932	20	Q3:	2	905	327	823	479
933	26	Q6:	3
934	24	Q9:	2	367	162	737	381
935	11	Q6:	1	750
936	38	Q7:	3	355
937	33	Q6:	0	704	255
938	18	Q9:	1	537
939	10	Q6:	0	770
940	39	Q2:	3
941	27	Q3:	3	646	219	163
942	10	Q5:	0	78	476	63
943	16	Q5:	2
944	37	Q3:	2	558	402	438
945	24	Q5:	1	38	844	246	840
946	18	Q6:	3	838	187
947	11	Q7:	3	173	765	238	156
948	36	Q4:	2	219	133	366	609
949	12	Q9:	3	665	397	463	153	128
950	20	Q5:	0	64	241
951	25	Q8:	0	380
952	32	Q4:	2	167	73
953	17	Q9:	2	777	703
954	17	Q9:	2
955	22	Q1:	3	388	442
956	25	Q5:	1	716	388
957	23	Q2:	0
958	16	Q8:	0
959	18	Q7:	1	160
960	33	Q8:	1
961	20	Q7:	1	846	912
962	36	Q8:	1	167	331	89
963	33	Q2:	3	383	511
964	11	Q1:	3
965	34	Q5:	2	419	823	704	839
966	12	Q7:	3	767
967	20	Q8:	2	316	534	843
968	34	Q3:	1	854	278
969	26	Q4:	2	639	423	228	712
970	36	Q6:	0	739	921
971	30	Q1:	0	58	945	54
972	29	Q6:	2	714
973	10	Q0:	3
974	19	Q3:	0	790	899	449	410
975	27	Q5:	3	940	967
976	13	Q4:	2	311	521
977	34	Q6:	2	546	870	312
978	16	Q8:	0
979	22	Q1:	1	228	949
980	15	Q2:	2	710	542	964
981	19	Q4:	2	81	731
982	21	Q6:	1	256	952
983	29	Q8:	3	616	180
984	30	Q6:	2
985	17	Q6:	1	32	663	858	105
986	16	Q8:	2	731	563	622	450	796
987	33	Q4:	3	745	743	266
988	38	Q3:	2	563
989	29	Q1:	1	515
990	25	Q1:	0	735
991	15	Q1:	2	305	937	143	501	543	750
992	15	Q7:	1
993	11	Q0:	2	931
994	29	Q9:	2	587	227	122
995	22	Q3:	1	897
996	30	Q8:	2	8
997	34	Q5:	0	491
998	30	Q9:	3	451	495	531
999	18	Q6:	3	639	595
1000	40	Q0:	2
========================================================== 